c sliceFM_02.cnf
p cnf 16 18
-14  -15 0
 10  -15 0
 -13  -14 0
 10  -16 0
 -13  -16 0
 -14  -17 0
 10  -17 0
 16  15  17  -10  14  13 0
 10  -14 0
 -10  1 0
 -13  -15 0
 -16  -17 0
 10  -13 0
 -15  -17 0
 -13  -17 0
 -14  -16 0
 10  -1 0
 -15  -16 0
